p cnf 20 20
-17 -8 -15 0
15 8 -9 0
14 7 12 0
2 -15 -8 0
13 -10 14 0
1 17 4 0
-5 -11 -20 0
-19 17 11 0
16 19 -18 0
-16 -7 -18 0
17 13 16 0
3 -19 18 0
-10 -2 14 0
-11 -6 18 0
12 1 6 0
1 3 8 0
-11 -19 -9 0
1 5 11 0
10 -15 -17 0
-8 -12 -18 0
